Using license file /home/benedond/gurobi.lic
Using gurobi.env file
Set parameter Threads to value 1
Academic license - for non-commercial use only
Changed value of parameter TimeLimit to 300.0
   Prev: inf  Min: 0.0  Max: inf  Default: inf
Gurobi Optimizer version 9.0.1 build v9.0.1rc0 (linux64)
Optimize a model with 1005 rows, 904 columns and 4288 nonzeros
Model fingerprint: 0x041dd5c9
Variable types: 40 continuous, 864 integer (864 binary)
Coefficient statistics:
  Matrix range     [2e-01, 4e+02]
  Objective range  [2e-02, 5e-01]
  Bounds range     [1e+00, 1e+00]
  RHS range        [1e+00, 8e+02]
Found heuristic solution: objective 4.4020366
Presolve removed 69 rows and 49 columns
Presolve time: 0.03s
Presolved: 936 rows, 855 columns, 4060 nonzeros
Variable types: 39 continuous, 816 integer (816 binary)

Root relaxation: objective 2.472030e+00, 1121 iterations, 0.03 seconds

    Nodes    |    Current Node    |     Objective Bounds      |     Work
 Expl Unexpl |  Obj  Depth IntInf | Incumbent    BestBd   Gap | It/Node Time

     0     0    2.47203    0   88    4.40204    2.47203  43.8%     -    0s
     0     0    2.60094    0   87    4.40204    2.60094  40.9%     -    0s
     0     0    2.61815    0   80    4.40204    2.61815  40.5%     -    0s
     0     0    2.72067    0  134    4.40204    2.72067  38.2%     -    0s
     0     0    2.72313    0  109    4.40204    2.72313  38.1%     -    0s
     0     0    2.80164    0  111    4.40204    2.80164  36.4%     -    0s
     0     0    2.85976    0  104    4.40204    2.85976  35.0%     -    0s
     0     0    2.86421    0  132    4.40204    2.86421  34.9%     -    0s
     0     0    2.87033    0  129    4.40204    2.87033  34.8%     -    0s
     0     0    2.87048    0  122    4.40204    2.87048  34.8%     -    0s
     0     0    2.91914    0  115    4.40204    2.91914  33.7%     -    0s
H    0     0                       3.6965366    2.91914  21.0%     -    0s
H    0     0                       3.6336342    2.91914  19.7%     -    0s
     0     0    2.93475    0  131    3.63363    2.93475  19.2%     -    0s
     0     0    2.94002    0  129    3.63363    2.94002  19.1%     -    0s
     0     0    2.94131    0  117    3.63363    2.94131  19.1%     -    0s
     0     0    2.94206    0  122    3.63363    2.94206  19.0%     -    0s
     0     0    2.94223    0  119    3.63363    2.94223  19.0%     -    0s
     0     0    2.95451    0  125    3.63363    2.95451  18.7%     -    0s
     0     0    2.95891    0  154    3.63363    2.95891  18.6%     -    0s
     0     0    2.96075    0  169    3.63363    2.96075  18.5%     -    0s
     0     0    2.96135    0  168    3.63363    2.96135  18.5%     -    0s
     0     0    2.96143    0  178    3.63363    2.96143  18.5%     -    0s
     0     0    2.99117    0  142    3.63363    2.99117  17.7%     -    0s
     0     0    2.99250    0  137    3.63363    2.99250  17.6%     -    0s
     0     0    2.99270    0  134    3.63363    2.99270  17.6%     -    0s
     0     0    2.99985    0  136    3.63363    2.99985  17.4%     -    0s
     0     0    3.00218    0  139    3.63363    3.00218  17.4%     -    0s
     0     0    3.00305    0  132    3.63363    3.00305  17.4%     -    0s
     0     0    3.00317    0  125    3.63363    3.00317  17.4%     -    0s
     0     0    3.00653    0  122    3.63363    3.00653  17.3%     -    0s
     0     0    3.00730    0  137    3.63363    3.00730  17.2%     -    0s
     0     0    3.00769    0  147    3.63363    3.00769  17.2%     -    0s
     0     0    3.01702    0  140    3.63363    3.01702  17.0%     -    0s
H    0     0                       3.6160732    3.01702  16.6%     -    0s
     0     0    3.02011    0  137    3.61607    3.02011  16.5%     -    0s
     0     0    3.02055    0  141    3.61607    3.02055  16.5%     -    0s
     0     0    3.02689    0  162    3.61607    3.02689  16.3%     -    0s
     0     0    3.02855    0  166    3.61607    3.02855  16.2%     -    0s
     0     0    3.02893    0  159    3.61607    3.02893  16.2%     -    0s
     0     0    3.03622    0  125    3.61607    3.03622  16.0%     -    0s
     0     0    3.03730    0  136    3.61607    3.03730  16.0%     -    0s
     0     0    3.03743    0  120    3.61607    3.03743  16.0%     -    0s
     0     0    3.03965    0  142    3.61607    3.03965  15.9%     -    0s
     0     0    3.03965    0  141    3.61607    3.03965  15.9%     -    1s
     0     2    3.04037    0  141    3.61607    3.04037  15.9%     -    1s
H   27    27                       3.5700610    3.05062  14.5%   136    1s
H  164   125                       3.5486342    3.06203  13.7%  90.1    2s
*  177   113              29       3.4882561    3.06203  12.2%  87.7    2s
   537   325    3.41287   35  153    3.48826    3.11499  10.7%  65.7    5s
H  563   325                       3.4673658    3.14483  9.30%  62.6    6s
H  591   318                       3.3560610    3.16271  5.76%  79.7    8s
H  591   302                       3.3514269    3.16271  5.63%  79.7    8s
H  618   286                       3.3514268    3.16271  5.63%  79.3    8s
H  647   263                       3.3514268    3.16739  5.49%  79.5    8s
   836   262    3.29539   41   93    3.35143    3.21380  4.11%  80.8   10s
*  990   191              32       3.3136463    3.24988  1.92%  79.3   11s

Cutting planes:
  Cover: 17
  Implied bound: 7
  Clique: 8
  MIR: 52
  StrongCG: 2
  Flow cover: 176
  GUB cover: 2
  RLT: 22
  Relax-and-lift: 151

Explored 1126 nodes (92415 simplex iterations) in 11.39 seconds
Thread count was 1 (of 4 available processors)

Solution count 10: 3.31365 3.35143 3.35606 ... 3.69654

Optimal solution found (tolerance 1.00e-04)
Best objective 3.313646336136e+00, best bound 3.313646336136e+00, gap 0.0000%
